p cnf 1034 2435
a 1 2 3 4 5 6 7 8 25 26 27 28 29 30 31 32 33 34 35 36 37 38 39 40 41 42 43 44 45 46 47 48 49 50 51 52 53 54 55 56 57 58 59 60 61 62 63 64 65 66 67 68 69 70 71 72 73 74 75 76 77 78 79 80 81 82 83 84 85 86 87 88 89 90 0
e 9 10 11 12 13 14 15 16 17 18 19 20 21 22 23 24 91 92 93 94 95 96 97 98 99 100 101 102 103 104 105 106 107 108 109 110 111 112 113 114 115 116 117 118 119 120 121 122 123 124 125 126 127 128 129 130 131 132 133 134 135 136 137 138 139 140 141 142 143 144 145 146 147 148 149 150 151 152 153 154 155 156 157 158 159 160 161 162 163 164 165 166 167 168 169 170 171 172 173 174 175 176 177 178 179 180 181 182 183 184 185 186 187 188 189 190 191 192 193 194 195 196 197 198 199 200 201 202 203 204 205 206 207 208 209 210 211 212 213 214 215 216 217 218 219 220 221 222 223 224 225 226 227 228 229 230 231 232 233 234 235 236 237 238 239 240 241 242 243 244 245 246 247 248 249 250 251 252 253 254 255 256 257 258 259 260 261 262 263 264 265 266 267 268 269 270 271 272 273 274 275 276 277 278 279 280 281 282 283 284 285 286 287 288 289 290 291 292 293 294 295 296 297 298 299 300 301 302 303 304 305 306 307 308 309 310 311 312 313 314 315 316 317 318 319 320 321 322 323 324 325 326 327 328 329 330 331 332 333 334 335 336 337 338 339 340 341 342 343 344 345 346 347 348 349 350 351 352 353 354 355 356 357 358 359 360 361 362 363 364 365 366 367 368 369 370 371 372 373 374 375 376 377 378 379 380 381 382 383 384 385 386 387 388 389 390 391 392 393 394 395 396 397 398 399 400 401 402 403 404 405 406 407 408 409 410 411 412 413 414 415 416 417 418 419 420 421 422 423 424 425 426 427 428 429 430 431 432 433 434 435 436 437 438 439 440 441 442 443 444 445 446 447 448 449 450 451 452 453 454 455 456 457 458 459 460 461 462 463 464 465 466 467 468 469 470 471 472 473 474 475 476 477 478 479 480 481 482 483 484 485 486 487 488 489 490 491 492 493 494 495 496 497 498 499 500 501 502 503 504 505 506 507 508 509 510 511 512 513 514 515 516 517 518 519 520 521 522 523 524 525 526 527 528 529 530 531 532 533 534 535 536 537 538 539 540 541 542 543 544 545 546 547 548 549 550 551 552 553 554 555 556 557 558 559 560 561 562 563 564 565 566 567 568 569 570 571 572 573 574 575 576 577 578 579 580 581 582 583 584 585 586 587 588 589 590 591 592 593 594 595 596 597 598 599 600 601 602 603 604 605 606 607 608 609 610 611 612 613 614 615 616 617 618 619 620 621 622 623 624 625 626 627 628 629 630 631 632 633 634 635 636 637 638 639 640 641 642 643 644 645 646 647 648 649 650 651 652 653 654 655 656 657 658 659 660 661 662 663 664 665 666 667 668 669 670 671 672 673 674 675 676 677 678 679 680 681 682 683 684 685 686 687 688 689 690 691 692 693 694 695 696 697 698 699 700 701 702 703 704 705 706 707 708 709 710 711 712 713 714 715 716 717 718 719 720 721 722 723 724 725 726 727 728 729 730 731 732 733 734 735 736 737 738 739 740 741 742 743 744 745 746 747 748 749 750 751 752 753 754 755 756 757 758 759 760 761 762 763 764 765 766 767 768 769 770 771 772 773 774 775 776 777 778 779 780 781 782 783 784 785 786 787 788 789 790 791 792 793 794 795 796 797 798 799 800 801 802 803 804 805 806 807 808 809 810 811 812 813 814 815 816 817 818 819 820 821 822 823 824 825 826 827 828 829 830 831 832 833 834 835 836 837 838 839 840 841 842 843 844 845 846 847 848 849 850 851 852 853 854 855 856 857 858 859 860 861 862 863 864 865 866 867 868 869 870 871 872 873 874 875 876 877 878 879 880 881 882 883 884 885 886 887 888 889 890 891 892 893 894 895 896 897 898 899 900 901 902 903 904 905 906 907 908 909 910 911 912 913 914 915 916 917 918 919 920 921 922 923 924 925 926 927 928 929 930 931 932 933 934 935 936 937 938 939 940 941 942 943 944 945 946 947 948 949 950 951 952 953 954 955 956 957 958 959 960 961 962 963 964 965 966 967 968 969 970 971 972 973 974 975 976 977 978 979 980 981 982 983 984 985 986 987 988 989 990 991 992 993 994 995 996 997 998 999 1000 1001 1002 1003 1004 1005 1006 1007 1008 1009 1010 1011 1012 1013 1014 1015 1016 1017 1018 1019 1020 1021 1022 1023 1024 1025 1026 1027 1028 1029 1030 1031 1032 1033 1034 0
-1034 0
1034 -694 0
1034 -783 0
1034 -806 0
1034 -829 0
1034 -838 0
1034 -847 0
1034 -856 0
1034 -865 0
1034 -908 0
1034 -949 0
1034 -958 0
1034 -967 0
1034 -976 0
1034 -985 0
1034 -994 0
1034 -1033 0
5 4 6 3 2 1 -693 -692 -1032 1033 0
1032 -1013 0
1032 -1031 0
-905 -946 -780 -1030 -395 -394 -393 -392 1031 0
1030 -1029 0
1030 -452 0
1030 -453 0
1030 -454 0
1030 -455 0
-1028 -1023 -1018 1029 0
1028 -1024 0
1028 -444 0
1028 -445 0
1028 -616 0
1028 -1025 0
1028 -618 0
1028 -1026 0
1028 -63 0
1028 -62 0
1028 -61 0
1028 -60 0
1028 -59 0
1028 -58 0
1028 -57 0
1028 -1027 0
-9 -30 1027 0
-9 -68 1026 0
-27 9 1025 0
9 -65 1024 0
1023 -1019 0
1023 -437 0
1023 -608 0
1023 -1020 0
1023 -1021 0
1023 -440 0
1023 -612 0
1023 -50 0
1023 -49 0
1023 -48 0
1023 -47 0
1023 -46 0
1023 -45 0
1023 -44 0
1023 -1022 0
-9 -28 1022 0
-26 9 1021 0
-9 -55 1020 0
9 -52 1019 0
1018 -1014 0
1018 -427 0
1018 -428 0
1018 -603 0
1018 -1015 0
1018 -1016 0
1018 -605 0
1018 -1017 0
1018 -37 0
1018 -36 0
1018 -35 0
1018 -34 0
1018 -33 0
1018 -32 0
1018 -31 0
-25 9 1017 0
-9 -29 1016 0
-39 9 1015 0
-9 -42 1014 0
-1012 -95 1013 0
1012 -1011 0
1012 -736 0
1012 -926 0
1012 -884 0
-155 -154 -153 -152 -1010 1011 0
1010 -999 0
1010 -1004 0
1010 -1009 0
-1008 61 63 62 60 59 58 57 -1007 -318 -1006 -316 -145 -144 -1005 1009 0
1008 30 0
1008 9 0
1007 68 0
1007 9 0
1006 27 0
1006 -9 0
1005 65 0
1005 -9 0
-1003 50 49 48 46 45 47 44 -312 -140 -1002 -1001 -308 -137 -1000 1004 0
1003 28 0
1003 9 0
1002 26 0
1002 -9 0
1001 55 0
1001 9 0
1000 52 0
1000 -9 0
32 31 33 35 37 36 34 -998 -305 -997 -996 -303 -128 -127 -995 999 0
998 25 0
998 -9 0
997 29 0
997 9 0
996 39 0
996 -9 0
995 42 0
995 9 0
5 4 8 3 2 1 -693 -692 -993 994 0
993 -989 0
993 -992 0
-763 -762 -761 -778 -777 -991 -990 -395 -394 -393 -392 992 0
991 -769 0
991 -821 0
990 -775 0
990 -667 0
-988 -95 989 0
988 -986 0
988 -987 0
988 -733 0
988 -734 0
988 -717 0
988 -718 0
988 -719 0
-810 -725 987 0
-367 -731 986 0
5 6 8 3 2 1 -693 -692 -984 985 0
984 -980 0
984 -983 0
-675 -820 -818 -674 -673 -982 -981 -395 -394 -393 -392 983 0
982 -825 0
982 -667 0
981 -686 0
981 -779 0
-979 -95 980 0
979 -977 0
979 -978 0
979 -373 0
979 -374 0
979 -807 0
979 -809 0
979 -375 0
-367 -814 978 0
-735 -386 977 0
7 5 6 8 3 1 -693 -692 -975 976 0
975 -971 0
975 -974 0
-680 -679 -678 -824 -823 -973 -972 -395 -394 -393 -392 974 0
973 -686 0
973 -775 0
972 -798 0
972 -821 0
-970 -95 971 0
970 -968 0
970 -969 0
970 -812 0
970 -813 0
970 -378 0
970 -379 0
970 -380 0
-731 -386 969 0
-810 -787 968 0
7 5 4 6 3 1 -693 -692 -966 967 0
966 -962 0
966 -965 0
-577 -576 -559 -797 -795 -964 -963 -395 -394 -393 -392 965 0
964 -825 0
964 -802 0
963 -775 0
963 -599 0
-961 -95 962 0
961 -959 0
961 -960 0
961 -784 0
961 -786 0
961 -259 0
961 -276 0
961 -277 0
-791 -814 960 0
-299 -731 959 0
7 5 4 8 3 1 -693 -692 -957 958 0
957 -953 0
957 -956 0
-758 -757 -756 -774 -773 -955 -954 -395 -394 -393 -392 956 0
955 -825 0
955 -769 0
954 -779 0
954 -798 0
-952 -95 953 0
952 -950 0
952 -951 0
952 -729 0
952 -730 0
952 -712 0
952 -713 0
952 -714 0
-725 -814 951 0
-787 -735 950 0
7 4 6 8 3 1 -693 -692 -948 949 0
948 -928 0
948 -947 0
-946 -904 -776 -945 -395 -394 -393 -392 947 0
946 -667 0
946 -798 0
945 -944 0
945 -452 0
945 -453 0
945 -454 0
945 -455 0
-943 -938 -933 944 0
943 -939 0
943 -940 0
943 -442 0
943 -419 0
943 -941 0
943 -446 0
943 -942 0
943 -421 0
943 -81 0
943 -77 0
943 -63 0
943 -62 0
943 -61 0
943 -60 0
943 -57 0
19 -65 942 0
-27 19 941 0
-19 -68 940 0
-19 -30 939 0
938 -934 0
938 -935 0
938 -936 0
938 -409 0
938 -433 0
938 -434 0
938 -937 0
938 -412 0
938 -80 0
938 -74 0
938 -50 0
938 -49 0
938 -48 0
938 -47 0
938 -44 0
-26 19 937 0
-19 -55 936 0
-19 -28 935 0
19 -52 934 0
933 -929 0
933 -930 0
933 -399 0
933 -424 0
933 -931 0
933 -932 0
933 -402 0
933 -430 0
933 -79 0
933 -71 0
933 -37 0
933 -36 0
933 -35 0
933 -34 0
933 -31 0
-19 -42 932 0
-25 19 931 0
-19 -29 930 0
-39 19 929 0
-927 -95 928 0
927 -925 0
927 -732 0
927 -883 0
927 -926 0
-787 -367 926 0
-155 -154 -153 -152 -924 925 0
924 -913 0
924 -918 0
924 -923 0
61 81 63 62 60 57 77 -121 -922 -146 -921 -119 -142 -920 -919 923 0
922 65 0
922 -19 0
921 27 0
921 -19 0
920 68 0
920 19 0
919 30 0
919 19 0
50 49 48 74 47 80 44 -112 -917 -134 -133 -109 -916 -915 -914 918 0
917 26 0
917 -19 0
916 55 0
916 19 0
915 28 0
915 19 0
914 52 0
914 -19 0
31 35 37 36 34 79 71 -130 -102 -912 -911 -124 -99 -910 -909 913 0
912 42 0
912 19 0
911 25 0
911 -19 0
910 29 0
910 19 0
909 39 0
909 -19 0
7 5 6 8 3 2 -693 -692 -907 908 0
907 -886 0
907 -906 0
-905 -904 -770 -903 -395 -394 -393 -392 906 0
905 -821 0
905 -802 0
904 -672 0
904 -825 0
903 -902 0
903 -452 0
903 -453 0
903 -454 0
903 -455 0
-901 -896 -891 902 0
901 -897 0
901 -898 0
901 -899 0
901 -900 0
901 -529 0
901 -530 0
901 -418 0
901 -90 0
901 -87 0
901 -420 0
901 -81 0
901 -77 0
901 -63 0
901 -62 0
901 -57 0
-24 -68 900 0
-24 -30 899 0
24 -65 898 0
-27 24 897 0
896 -892 0
896 -893 0
896 -894 0
896 -895 0
896 -522 0
896 -410 0
896 -411 0
896 -89 0
896 -525 0
896 -86 0
896 -80 0
896 -74 0
896 -50 0
896 -49 0
896 -44 0
-24 -55 895 0
-24 -28 894 0
24 -52 893 0
-26 24 892 0
891 -887 0
891 -888 0
891 -889 0
891 -537 0
891 -400 0
891 -401 0
891 -539 0
891 -88 0
891 -890 0
891 -85 0
891 -79 0
891 -71 0
891 -37 0
891 -36 0
891 -31 0
-25 24 890 0
-24 -42 889 0
-24 -29 888 0
-39 24 887 0
-885 -95 886 0
885 -882 0
885 -726 0
885 -883 0
885 -884 0
-791 -810 884 0
-814 -372 883 0
-155 -154 -153 -152 -881 882 0
881 -870 0
881 -875 0
881 -880 0
81 63 62 57 77 -120 90 87 -118 -230 -229 -879 -878 -877 -876 880 0
879 68 0
879 24 0
878 30 0
878 24 0
877 65 0
877 -24 0
876 27 0
876 -24 0
50 49 74 86 80 44 -225 89 -111 -110 -222 -874 -873 -872 -871 875 0
874 55 0
874 24 0
873 28 0
873 24 0
872 52 0
872 -24 0
871 26 0
871 -24 0
31 37 36 79 71 85 -869 88 -239 -101 -100 -237 -868 -867 -866 870 0
869 25 0
869 -24 0
868 42 0
868 24 0
867 29 0
867 24 0
866 39 0
866 -24 0
7 4 6 8 3 2 -693 -692 -864 865 0
864 -860 0
864 -863 0
-658 -657 -640 -671 -670 -862 -861 -395 -394 -393 -392 863 0
862 -771 0
862 -769 0
861 -667 0
861 -802 0
-859 -95 860 0
859 -857 0
859 -858 0
859 -370 0
859 -371 0
859 -340 0
859 -357 0
859 -358 0
-725 -727 858 0
-791 -367 857 0
7 5 4 6 3 2 -693 -692 -855 856 0
855 -851 0
855 -854 0
-518 -801 -800 -501 -456 -853 -852 -395 -394 -393 -392 854 0
853 -672 0
853 -798 0
852 -769 0
852 -599 0
-850 -95 851 0
850 -848 0
850 -849 0
850 -156 0
850 -201 0
850 -789 0
850 -790 0
850 -218 0
-787 -372 849 0
-299 -725 848 0
7 5 4 8 3 2 -693 -692 -846 847 0
846 -842 0
846 -845 0
-768 -767 -766 -765 -760 -844 -843 -395 -394 -393 -392 845 0
844 -672 0
844 -775 0
843 -779 0
843 -802 0
-841 -95 842 0
841 -839 0
841 -840 0
841 -716 0
841 -721 0
841 -722 0
841 -723 0
841 -724 0
-731 -372 840 0
-791 -735 839 0
4 6 8 3 2 1 -693 -692 -837 838 0
837 -833 0
837 -836 0
-666 -665 -660 -639 -622 -835 -834 -395 -394 -393 -392 836 0
835 -672 0
835 -821 0
834 -771 0
834 -779 0
-832 -95 833 0
832 -830 0
832 -831 0
832 -322 0
832 -339 0
832 -360 0
832 -365 0
832 -366 0
-810 -372 831 0
-735 -727 830 0
7 5 6 8 2 1 -693 -692 -828 829 0
828 -817 0
828 -827 0
-685 -684 -683 -682 -677 -826 -822 -395 -394 -393 -392 827 0
826 -771 0
826 -825 0
-680 -679 -678 -824 -823 825 0
824 -819 0
824 -575 0
824 -452 0
824 -453 0
824 -454 0
824 -455 0
823 -676 0
823 -451 0
823 -452 0
823 -453 0
823 -454 0
823 -455 0
822 -599 0
822 -821 0
-675 -820 -818 -674 -673 821 0
820 -638 0
820 -819 0
820 -452 0
820 -453 0
820 -454 0
820 -455 0
-685 -684 -683 819 0
818 -656 0
818 -681 0
818 -452 0
818 -453 0
818 -454 0
818 -455 0
-816 -95 817 0
816 -811 0
816 -815 0
816 -377 0
816 -382 0
816 -383 0
816 -384 0
816 -385 0
-814 -727 815 0
814 -812 0
814 -813 0
814 -378 0
814 -379 0
814 -380 0
-155 -154 -153 -152 -275 -808 813 0
-155 -154 -153 -152 -151 -376 812 0
-810 -299 811 0
810 -373 0
810 -374 0
810 -807 0
810 -809 0
810 -375 0
-155 -154 -153 -152 -808 -338 809 0
808 -383 0
808 -384 0
808 -385 0
-155 -154 -153 -152 -381 -356 807 0
7 5 4 6 2 1 -693 -692 -805 806 0
805 -794 0
805 -804 0
-598 -597 -596 -595 -542 -803 -799 -395 -394 -393 -392 804 0
803 -686 0
803 -802 0
-518 -801 -800 -501 -456 802 0
801 -478 0
801 -796 0
801 -452 0
801 -453 0
801 -454 0
801 -455 0
800 -423 0
800 -578 0
800 -452 0
800 -453 0
800 -454 0
800 -455 0
799 -771 0
799 -798 0
-577 -576 -559 -797 -795 798 0
797 -575 0
797 -796 0
797 -452 0
797 -453 0
797 -454 0
797 -455 0
-598 -597 -596 796 0
795 -519 0
795 -558 0
795 -452 0
795 -453 0
795 -454 0
795 -455 0
-793 -95 794 0
793 -788 0
793 -792 0
793 -242 0
793 -295 0
793 -296 0
793 -297 0
793 -298 0
-791 -386 792 0
791 -156 0
791 -201 0
791 -789 0
791 -790 0
791 -218 0
-155 -154 -153 -152 -785 -178 790 0
-155 -154 -153 -152 -278 -123 789 0
-787 -727 788 0
787 -784 0
787 -786 0
787 -259 0
787 -276 0
787 -277 0
-155 -154 -153 -152 -785 -275 786 0
785 -296 0
785 -297 0
785 -298 0
-155 -154 -153 -152 -258 -219 784 0
7 5 4 8 2 1 -693 -692 -782 783 0
782 -738 0
782 -781 0
-780 -776 -770 -755 -395 -394 -393 -392 781 0
780 -779 0
780 -599 0
-763 -762 -761 -778 -777 779 0
778 -772 0
778 -621 0
778 -452 0
778 -453 0
778 -454 0
778 -455 0
777 -759 0
777 -656 0
777 -452 0
777 -453 0
777 -454 0
777 -455 0
776 -771 0
776 -775 0
-758 -757 -756 -774 -773 775 0
774 -764 0
774 -451 0
774 -452 0
774 -453 0
774 -454 0
774 -455 0
773 -772 0
773 -558 0
773 -452 0
773 -453 0
773 -454 0
773 -455 0
-768 -767 -766 772 0
-663 -662 -661 -689 -688 771 0
770 -686 0
770 -769 0
-768 -767 -766 -765 -760 769 0
768 -478 0
768 -452 0
768 -453 0
768 -454 0
768 -455 0
767 -638 0
767 -517 0
767 -452 0
767 -453 0
767 -454 0
767 -455 0
766 -423 0
766 -575 0
766 -452 0
766 -453 0
766 -454 0
766 -455 0
765 -764 0
765 -517 0
765 -452 0
765 -453 0
765 -454 0
765 -455 0
-763 -762 -761 764 0
763 -638 0
763 -452 0
763 -453 0
763 -454 0
763 -455 0
762 -656 0
762 -575 0
762 -452 0
762 -453 0
762 -454 0
762 -455 0
761 -621 0
761 -478 0
761 -452 0
761 -453 0
761 -454 0
761 -455 0
760 -759 0
760 -423 0
760 -452 0
760 -453 0
760 -454 0
760 -455 0
-758 -757 -756 759 0
758 -575 0
758 -452 0
758 -453 0
758 -454 0
758 -455 0
757 -638 0
757 -451 0
757 -452 0
757 -453 0
757 -454 0
757 -455 0
756 -558 0
756 -478 0
756 -452 0
756 -453 0
756 -454 0
756 -455 0
755 -754 0
755 -452 0
755 -453 0
755 -454 0
755 -455 0
-753 -748 -743 754 0
753 -749 0
753 -750 0
753 -751 0
753 -493 0
753 -467 0
753 -468 0
753 -752 0
753 -497 0
753 -81 0
753 -77 0
753 -63 0
753 -62 0
753 -61 0
753 -60 0
753 -57 0
-14 -68 752 0
-14 -30 751 0
14 -65 750 0
-27 14 749 0
748 -744 0
748 -745 0
748 -746 0
748 -486 0
748 -489 0
748 -460 0
748 -461 0
748 -747 0
748 -80 0
748 -74 0
748 -50 0
748 -49 0
748 -48 0
748 -47 0
748 -44 0
-14 -55 747 0
-14 -28 746 0
14 -52 745 0
-26 14 744 0
743 -739 0
743 -740 0
743 -741 0
743 -742 0
743 -479 0
743 -482 0
743 -472 0
743 -476 0
743 -79 0
743 -71 0
743 -37 0
743 -36 0
743 -35 0
743 -34 0
743 -31 0
-14 -42 742 0
-14 -29 741 0
-39 14 740 0
-25 14 739 0
-737 -95 738 0
737 -711 0
737 -726 0
737 -732 0
737 -736 0
-299 -735 736 0
735 -733 0
735 -734 0
735 -717 0
735 -718 0
735 -719 0
-155 -154 -153 -152 -321 -728 734 0
-155 -154 -153 -152 -356 -715 733 0
-731 -727 732 0
731 -729 0
731 -730 0
731 -712 0
731 -713 0
731 -714 0
-155 -154 -153 -152 -151 -720 730 0
-155 -154 -153 -152 -258 -728 729 0
728 -722 0
728 -723 0
728 -724 0
727 -388 0
727 -389 0
727 -361 0
727 -362 0
727 -363 0
-725 -386 726 0
725 -716 0
725 -721 0
725 -722 0
725 -723 0
725 -724 0
-155 -154 -153 -152 -178 724 0
-155 -154 -153 -152 -217 -338 723 0
-155 -154 -153 -152 -275 -123 722 0
-155 -154 -153 -152 -217 -720 721 0
720 -717 0
720 -718 0
720 -719 0
-155 -154 -153 -152 -338 719 0
-155 -154 -153 -152 -275 -356 718 0
-155 -154 -153 -152 -178 -321 717 0
-155 -154 -153 -152 -123 -715 716 0
715 -712 0
715 -713 0
715 -714 0
-155 -154 -153 -152 -275 714 0
-155 -154 -153 -152 -151 -338 713 0
-155 -154 -153 -152 -178 -258 712 0
-155 -154 -153 -152 -710 711 0
710 -699 0
710 -704 0
710 -709 0
61 81 63 62 60 57 77 -197 -708 -168 -167 -193 -707 -706 -705 709 0
708 68 0
708 14 0
707 30 0
707 14 0
706 65 0
706 -14 0
705 27 0
705 -14 0
50 49 48 74 47 80 44 -703 -161 -160 -189 -186 -702 -701 -700 704 0
703 55 0
703 14 0
702 28 0
702 14 0
701 52 0
701 -14 0
700 26 0
700 -14 0
31 35 37 36 34 79 71 -176 -172 -182 -179 -698 -697 -696 -695 699 0
698 42 0
698 14 0
697 29 0
697 14 0
696 39 0
696 -14 0
695 25 0
695 -14 0
7 4 6 8 2 1 -693 -692 -691 694 0
693 -7 0
693 -3 0
693 -2 0
693 -1 0
692 -8 0
692 -6 0
692 -5 0
692 -4 0
691 -391 0
691 -690 0
-663 -662 -661 -689 -688 -687 -668 -395 -394 -393 -392 690 0
689 -659 0
689 -541 0
689 -452 0
689 -453 0
689 -454 0
689 -455 0
688 -669 0
688 -500 0
688 -452 0
688 -453 0
688 -454 0
688 -455 0
687 -672 0
687 -686 0
-685 -684 -683 -682 -677 686 0
685 -541 0
685 -452 0
685 -453 0
685 -454 0
685 -455 0
684 -621 0
684 -500 0
684 -452 0
684 -453 0
684 -454 0
684 -455 0
683 -558 0
683 -594 0
683 -452 0
683 -453 0
683 -454 0
683 -455 0
682 -681 0
682 -594 0
682 -452 0
682 -453 0
682 -454 0
682 -455 0
-680 -679 -678 681 0
680 -558 0
680 -452 0
680 -453 0
680 -454 0
680 -455 0
679 -621 0
679 -451 0
679 -452 0
679 -453 0
679 -454 0
679 -455 0
678 -575 0
678 -541 0
678 -452 0
678 -453 0
678 -454 0
678 -455 0
677 -676 0
677 -500 0
677 -452 0
677 -453 0
677 -454 0
677 -455 0
-675 -674 -673 676 0
675 -621 0
675 -452 0
675 -453 0
675 -454 0
675 -455 0
674 -656 0
674 -558 0
674 -452 0
674 -453 0
674 -454 0
674 -455 0
673 -638 0
673 -541 0
673 -452 0
673 -453 0
673 -454 0
673 -455 0
-658 -657 -640 -671 -670 672 0
671 -664 0
671 -478 0
671 -452 0
671 -453 0
671 -454 0
671 -455 0
670 -669 0
670 -517 0
670 -452 0
670 -453 0
670 -454 0
670 -455 0
-666 -639 -622 669 0
668 -599 0
668 -667 0
-666 -665 -660 -639 -622 667 0
666 -656 0
666 -452 0
666 -453 0
666 -454 0
666 -455 0
665 -664 0
665 -638 0
665 -452 0
665 -453 0
665 -454 0
665 -455 0
-663 -662 -661 664 0
663 -594 0
663 -452 0
663 -453 0
663 -454 0
663 -455 0
662 -656 0
662 -500 0
662 -452 0
662 -453 0
662 -454 0
662 -455 0
661 -423 0
661 -541 0
661 -452 0
661 -453 0
661 -454 0
661 -455 0
660 -659 0
660 -621 0
660 -452 0
660 -453 0
660 -454 0
660 -455 0
-658 -657 -640 659 0
658 -423 0
658 -452 0
658 -453 0
658 -454 0
658 -455 0
657 -656 0
657 -517 0
657 -452 0
657 -453 0
657 -454 0
657 -455 0
-655 -650 -645 656 0
655 -651 0
655 -652 0
655 -616 0
655 -419 0
655 -618 0
655 -421 0
655 -653 0
655 -654 0
655 -77 0
655 -76 0
655 -63 0
655 -62 0
655 -61 0
655 -60 0
655 -58 0
-11 -30 654 0
-27 11 653 0
-17 -68 652 0
17 -65 651 0
650 -409 0
650 -646 0
650 -647 0
650 -608 0
650 -648 0
650 -649 0
650 -412 0
650 -612 0
650 -74 0
650 -73 0
650 -50 0
650 -49 0
650 -48 0
650 -47 0
650 -45 0
-26 11 649 0
-11 -28 648 0
-17 -55 647 0
17 -52 646 0
645 -399 0
645 -641 0
645 -642 0
645 -643 0
645 -603 0
645 -402 0
645 -605 0
645 -644 0
645 -71 0
645 -70 0
645 -37 0
645 -36 0
645 -35 0
645 -34 0
645 -32 0
-11 -29 644 0
-17 -42 643 0
-39 17 642 0
-25 11 641 0
640 -478 0
640 -594 0
640 -452 0
640 -453 0
640 -454 0
640 -455 0
639 -638 0
639 -594 0
639 -452 0
639 -453 0
639 -454 0
639 -455 0
-637 -632 -627 638 0
637 -467 0
637 -616 0
637 -633 0
637 -634 0
637 -468 0
637 -635 0
637 -636 0
637 -618 0
637 -78 0
637 -77 0
637 -76 0
637 -63 0
637 -61 0
637 -60 0
637 -58 0
-13 -68 636 0
-10 -30 635 0
13 -65 634 0
-27 10 633 0
632 -608 0
632 -628 0
632 -460 0
632 -629 0
632 -461 0
632 -630 0
632 -631 0
632 -612 0
632 -75 0
632 -74 0
632 -73 0
632 -50 0
632 -48 0
632 -47 0
632 -45 0
-26 10 631 0
-13 -55 630 0
-10 -28 629 0
13 -52 628 0
627 -603 0
627 -623 0
627 -624 0
627 -472 0
627 -625 0
627 -626 0
627 -476 0
627 -605 0
627 -72 0
627 -71 0
627 -70 0
627 -37 0
627 -35 0
627 -34 0
627 -32 0
-13 -42 626 0
-10 -29 625 0
-39 13 624 0
-25 10 623 0
622 -621 0
622 -423 0
622 -452 0
622 -453 0
622 -454 0
622 -455 0
-620 -613 -606 621 0
620 -529 0
620 -530 0
620 -614 0
620 -615 0
620 -616 0
620 -617 0
620 -618 0
620 -87 0
620 -619 0
620 -77 0
620 -76 0
620 -63 0
620 -62 0
620 -60 0
620 -58 0
-12 -30 619 0
-9 -67 618 0
-21 -68 617 0
9 -64 616 0
21 -65 615 0
-27 12 614 0
613 -522 0
613 -607 0
613 -608 0
613 -609 0
613 -610 0
613 -611 0
613 -525 0
613 -612 0
613 -86 0
613 -74 0
613 -73 0
613 -50 0
613 -49 0
613 -47 0
613 -45 0
-9 -54 612 0
-12 -28 611 0
-26 12 610 0
-21 -55 609 0
9 -51 608 0
21 -52 607 0
606 -537 0
606 -600 0
606 -601 0
606 -602 0
606 -603 0
606 -539 0
606 -604 0
606 -605 0
606 -85 0
606 -71 0
606 -70 0
606 -37 0
606 -36 0
606 -34 0
606 -32 0
-9 -41 605 0
-12 -29 604 0
-38 9 603 0
-21 -42 602 0
-39 21 601 0
-25 12 600 0
-598 -597 -596 -595 -542 599 0
598 -500 0
598 -452 0
598 -453 0
598 -454 0
598 -455 0
597 -451 0
597 -594 0
597 -452 0
597 -453 0
597 -454 0
597 -455 0
596 -541 0
596 -517 0
596 -452 0
596 -453 0
596 -454 0
596 -455 0
595 -578 0
595 -594 0
595 -452 0
595 -453 0
595 -454 0
595 -455 0
-593 -588 -583 594 0
593 -589 0
593 -590 0
593 -591 0
593 -493 0
593 -497 0
593 -419 0
593 -421 0
593 -81 0
593 -78 0
593 -77 0
593 -76 0
593 -63 0
593 -61 0
593 -60 0
593 -592 0
-15 -30 592 0
-18 -68 591 0
18 -65 590 0
-27 15 589 0
588 -584 0
588 -585 0
588 -586 0
588 -409 0
588 -486 0
588 -489 0
588 -412 0
588 -80 0
588 -75 0
588 -74 0
588 -73 0
588 -50 0
588 -48 0
588 -47 0
588 -587 0
-15 -28 587 0
-18 -55 586 0
18 -52 585 0
-26 15 584 0
583 -579 0
583 -580 0
583 -581 0
583 -399 0
583 -479 0
583 -482 0
583 -402 0
583 -582 0
583 -79 0
583 -72 0
583 -71 0
583 -70 0
583 -37 0
583 -35 0
583 -34 0
-25 15 582 0
-18 -42 581 0
-15 -29 580 0
-39 18 579 0
-577 -576 -559 578 0
577 -451 0
577 -452 0
577 -453 0
577 -454 0
577 -455 0
576 -575 0
576 -500 0
576 -452 0
576 -453 0
576 -454 0
576 -455 0
-574 -569 -564 575 0
574 -570 0
574 -571 0
574 -572 0
574 -573 0
574 -442 0
574 -467 0
574 -468 0
574 -446 0
574 -84 0
574 -81 0
574 -77 0
574 -76 0
574 -62 0
574 -61 0
574 -60 0
-15 -68 573 0
-18 -30 572 0
15 -65 571 0
-27 18 570 0
569 -565 0
569 -566 0
569 -567 0
569 -433 0
569 -434 0
569 -460 0
569 -461 0
569 -568 0
569 -83 0
569 -80 0
569 -74 0
569 -73 0
569 -49 0
569 -48 0
569 -47 0
-18 -28 568 0
-15 -55 567 0
15 -52 566 0
-26 18 565 0
564 -560 0
564 -561 0
564 -424 0
564 -472 0
564 -562 0
564 -476 0
564 -430 0
564 -563 0
564 -82 0
564 -79 0
564 -71 0
564 -70 0
564 -36 0
564 -35 0
564 -34 0
-25 18 563 0
-18 -29 562 0
-15 -42 561 0
-39 15 560 0
559 -558 0
559 -517 0
559 -452 0
559 -453 0
559 -454 0
559 -455 0
-557 -552 -547 558 0
557 -553 0
557 -554 0
557 -442 0
557 -529 0
557 -530 0
557 -446 0
557 -87 0
557 -555 0
557 -81 0
557 -78 0
557 -77 0
557 -76 0
557 -63 0
557 -60 0
557 -556 0
-20 -30 556 0
-23 -68 555 0
23 -65 554 0
-27 20 553 0
552 -548 0
552 -549 0
552 -433 0
552 -434 0
552 -522 0
552 -550 0
552 -525 0
552 -86 0
552 -80 0
552 -75 0
552 -74 0
552 -73 0
552 -50 0
552 -47 0
552 -551 0
-20 -28 551 0
-23 -55 550 0
23 -52 549 0
-26 20 548 0
547 -543 0
547 -544 0
547 -545 0
547 -424 0
547 -537 0
547 -539 0
547 -430 0
547 -546 0
547 -85 0
547 -79 0
547 -72 0
547 -71 0
547 -70 0
547 -37 0
547 -34 0
-25 20 546 0
-23 -42 545 0
-20 -29 544 0
-39 23 543 0
542 -519 0
542 -541 0
542 -452 0
542 -453 0
542 -454 0
542 -455 0
-540 -533 -526 541 0
540 -534 0
540 -535 0
540 -536 0
540 -537 0
540 -479 0
540 -482 0
540 -538 0
540 -539 0
540 -85 0
540 -79 0
540 -71 0
540 -70 0
540 -37 0
540 -36 0
540 -34 0
-24 -43 539 0
-22 -42 538 0
24 -40 537 0
-16 -29 536 0
-39 22 535 0
-25 16 534 0
533 -527 0
533 -528 0
533 -529 0
533 -530 0
533 -493 0
533 -531 0
533 -497 0
533 -87 0
533 -532 0
533 -81 0
533 -77 0
533 -76 0
533 -63 0
533 -62 0
533 -60 0
-22 -68 532 0
-27 16 531 0
-24 -69 530 0
24 -66 529 0
-16 -30 528 0
22 -65 527 0
526 -520 0
526 -521 0
526 -522 0
526 -486 0
526 -489 0
526 -523 0
526 -524 0
526 -525 0
526 -86 0
526 -80 0
526 -74 0
526 -73 0
526 -50 0
526 -49 0
526 -47 0
-24 -56 525 0
-16 -28 524 0
-22 -55 523 0
24 -53 522 0
22 -52 521 0
-26 16 520 0
-518 -501 -456 519 0
518 -517 0
518 -452 0
518 -453 0
518 -454 0
518 -455 0
-516 -511 -506 517 0
516 -418 0
516 -512 0
516 -513 0
516 -444 0
516 -445 0
516 -514 0
516 -90 0
516 -420 0
516 -515 0
516 -81 0
516 -76 0
516 -63 0
516 -62 0
516 -61 0
516 -59 0
-12 -68 515 0
12 -65 514 0
-21 -30 513 0
-27 21 512 0
511 -410 0
511 -411 0
511 -507 0
511 -508 0
511 -509 0
511 -437 0
511 -510 0
511 -89 0
511 -440 0
511 -80 0
511 -73 0
511 -50 0
511 -49 0
511 -48 0
511 -46 0
-12 -55 510 0
-21 -28 509 0
12 -52 508 0
-26 21 507 0
506 -400 0
506 -401 0
506 -502 0
506 -503 0
506 -427 0
506 -428 0
506 -504 0
506 -505 0
506 -88 0
506 -79 0
506 -70 0
506 -37 0
506 -36 0
506 -35 0
506 -33 0
-39 12 505 0
-12 -42 504 0
-21 -29 503 0
-25 21 502 0
501 -478 0
501 -500 0
501 -452 0
501 -453 0
501 -454 0
501 -455 0
-499 -492 -485 500 0
499 -444 0
499 -445 0
499 -493 0
499 -494 0
499 -495 0
499 -496 0
499 -497 0
499 -498 0
499 -84 0
499 -81 0
499 -76 0
499 -62 0
499 -61 0
499 -60 0
499 -59 0
-10 -68 498 0
-14 -67 497 0
-13 -30 496 0
10 -65 495 0
-27 13 494 0
14 -64 493 0
492 -437 0
492 -486 0
492 -487 0
492 -488 0
492 -489 0
492 -490 0
492 -491 0
492 -440 0
492 -83 0
492 -80 0
492 -73 0
492 -49 0
492 -48 0
492 -47 0
492 -46 0
-10 -55 491 0
-13 -28 490 0
-14 -54 489 0
10 -52 488 0
-26 13 487 0
14 -51 486 0
485 -427 0
485 -428 0
485 -479 0
485 -480 0
485 -481 0
485 -482 0
485 -483 0
485 -484 0
485 -82 0
485 -79 0
485 -70 0
485 -36 0
485 -35 0
485 -34 0
485 -33 0
-10 -42 484 0
-13 -29 483 0
-14 -41 482 0
-39 10 481 0
-25 13 480 0
-38 14 479 0
-477 -470 -463 478 0
477 -471 0
477 -400 0
477 -401 0
477 -472 0
477 -473 0
477 -474 0
477 -475 0
477 -476 0
477 -88 0
477 -79 0
477 -71 0
477 -70 0
477 -37 0
477 -36 0
477 -35 0
-14 -43 476 0
-25 22 475 0
-39 16 474 0
-16 -42 473 0
14 -40 472 0
-22 -29 471 0
470 -464 0
470 -465 0
470 -466 0
470 -418 0
470 -467 0
470 -468 0
470 -90 0
470 -420 0
470 -469 0
470 -81 0
470 -77 0
470 -76 0
470 -63 0
470 -62 0
470 -61 0
-22 -30 469 0
14 -66 468 0
-14 -69 467 0
-16 -68 466 0
16 -65 465 0
-27 22 464 0
463 -457 0
463 -458 0
463 -459 0
463 -410 0
463 -411 0
463 -460 0
463 -461 0
463 -462 0
463 -89 0
463 -80 0
463 -74 0
463 -73 0
463 -50 0
463 -49 0
463 -48 0
-22 -28 462 0
-14 -56 461 0
14 -53 460 0
-16 -55 459 0
16 -52 458 0
-26 22 457 0
456 -423 0
456 -451 0
456 -452 0
456 -453 0
456 -454 0
456 -455 0
-27 26 455 0
-29 28 454 0
-26 25 453 0
-28 30 452 0
-450 -441 -432 451 0
450 -442 0
450 -443 0
450 -444 0
450 -445 0
450 -446 0
450 -447 0
450 -448 0
450 -449 0
450 -81 0
450 -76 0
450 -63 0
450 -62 0
450 -61 0
450 -60 0
450 -59 0
-17 -30 449 0
-11 -68 448 0
-27 17 447 0
19 -64 446 0
-9 -69 445 0
9 -66 444 0
11 -65 443 0
-19 -67 442 0
441 -433 0
441 -434 0
441 -435 0
441 -436 0
441 -437 0
441 -438 0
441 -439 0
441 -440 0
441 -80 0
441 -73 0
441 -50 0
441 -49 0
441 -48 0
441 -47 0
441 -46 0
-9 -56 440 0
-11 -55 439 0
-17 -28 438 0
9 -53 437 0
11 -52 436 0
-26 17 435 0
-19 -54 434 0
19 -51 433 0
432 -424 0
432 -425 0
432 -426 0
432 -427 0
432 -428 0
432 -429 0
432 -430 0
432 -431 0
432 -79 0
432 -70 0
432 -37 0
432 -36 0
432 -35 0
432 -34 0
432 -33 0
-11 -42 431 0
-19 -41 430 0
-39 11 429 0
-9 -43 428 0
9 -40 427 0
-17 -29 426 0
-25 17 425 0
-38 19 424 0
-422 -413 -404 423 0
422 -414 0
422 -415 0
422 -416 0
422 -417 0
422 -418 0
422 -419 0
422 -90 0
422 -420 0
422 -421 0
422 -84 0
422 -81 0
422 -77 0
422 -76 0
422 -62 0
422 -61 0
-19 -69 421 0
-24 -67 420 0
19 -66 419 0
24 -64 418 0
-20 -68 417 0
-23 -30 416 0
20 -65 415 0
-27 23 414 0
413 -405 0
413 -406 0
413 -407 0
413 -408 0
413 -409 0
413 -410 0
413 -411 0
413 -412 0
413 -89 0
413 -83 0
413 -80 0
413 -74 0
413 -73 0
413 -49 0
413 -48 0
-19 -56 412 0
-24 -54 411 0
24 -51 410 0
19 -53 409 0
-20 -55 408 0
-23 -28 407 0
20 -52 406 0
-26 23 405 0
404 -396 0
404 -397 0
404 -398 0
404 -399 0
404 -400 0
404 -401 0
404 -402 0
404 -403 0
404 -88 0
404 -82 0
404 -79 0
404 -71 0
404 -70 0
404 -36 0
404 -35 0
-39 20 403 0
-19 -43 402 0
-24 -41 401 0
-38 24 400 0
19 -40 399 0
-20 -42 398 0
-23 -29 397 0
-25 23 396 0
395 10 0
395 11 0
395 12 0
395 9 0
394 14 0
394 15 0
394 16 0
394 13 0
393 17 0
393 18 0
393 19 0
393 20 0
392 21 0
392 22 0
392 23 0
392 24 0
-390 -95 391 0
390 -368 0
390 -387 0
390 -388 0
390 -389 0
390 -361 0
390 -362 0
390 -363 0
-155 -154 -153 -152 -241 -359 389 0
-155 -154 -153 -152 -200 -369 388 0
-386 -372 387 0
386 -377 0
386 -382 0
386 -383 0
386 -384 0
386 -385 0
-155 -154 -153 -152 -241 385 0
-155 -154 -153 -152 -200 -321 384 0
-155 -154 -153 -152 -294 -258 383 0
-155 -154 -153 -152 -294 -381 382 0
381 -378 0
381 -379 0
381 -380 0
-155 -154 -153 -152 -258 380 0
-155 -154 -153 -152 -151 -321 379 0
-155 -154 -153 -152 -241 -275 378 0
-155 -154 -153 -152 -200 -376 377 0
376 -373 0
376 -374 0
376 -375 0
-155 -154 -153 -152 -321 375 0
-155 -154 -153 -152 -258 -356 374 0
-155 -154 -153 -152 -241 -338 373 0
372 -370 0
372 -371 0
372 -340 0
372 -357 0
372 -358 0
-155 -154 -153 -152 -178 -364 371 0
-155 -154 -153 -152 -217 -369 370 0
369 -322 0
369 -339 0
369 -366 0
-367 -299 368 0
367 -322 0
367 -339 0
367 -360 0
367 -365 0
367 -366 0
-155 -154 -153 -152 -356 366 0
-155 -154 -153 -152 -338 -364 365 0
364 -361 0
364 -362 0
364 -363 0
-155 -154 -153 -152 -294 363 0
-155 -154 -153 -152 -200 -356 362 0
-155 -154 -153 -152 -241 -123 361 0
-155 -154 -153 -152 -321 -359 360 0
359 -340 0
359 -357 0
359 -358 0
-155 -154 -153 -152 -123 358 0
-155 -154 -153 -152 -217 -356 357 0
356 -345 0
356 -350 0
356 -355 0
61 76 63 62 60 58 77 -354 -353 -121 -318 -119 -316 -352 -351 355 0
354 30 0
354 11 0
353 27 0
353 -11 0
352 68 0
352 17 0
351 65 0
351 -17 0
50 49 48 45 74 47 73 -312 -112 -349 -348 -308 -347 -346 -109 350 0
349 26 0
349 -11 0
348 28 0
348 11 0
347 55 0
347 17 0
346 52 0
346 -17 0
32 35 37 36 34 71 70 -344 -305 -102 -303 -343 -342 -341 -99 345 0
344 29 0
344 11 0
343 42 0
343 17 0
342 39 0
342 -17 0
341 25 0
341 -11 0
-155 -154 -153 -152 -294 -178 340 0
-155 -154 -153 -152 -294 -338 339 0
338 -327 0
338 -332 0
338 -337 0
61 76 63 60 58 78 77 -318 -336 -335 -168 -334 -333 -316 -167 337 0
336 68 0
336 13 0
335 30 0
335 10 0
334 65 0
334 -13 0
333 27 0
333 -10 0
50 48 45 75 74 47 73 -312 -331 -330 -161 -329 -160 -328 -308 332 0
331 26 0
331 -10 0
330 55 0
330 13 0
329 28 0
329 10 0
328 52 0
328 -13 0
32 35 37 34 72 71 70 -305 -176 -326 -325 -172 -324 -323 -303 327 0
326 42 0
326 13 0
325 29 0
325 10 0
324 39 0
324 -13 0
323 25 0
323 -10 0
-155 -154 -153 -152 -123 -321 322 0
321 -306 0
321 -313 0
321 -320 0
76 63 62 60 58 77 -319 87 -318 -317 -316 -315 -314 -230 -229 320 0
319 30 0
319 12 0
318 67 0
318 9 0
317 68 0
317 21 0
316 64 0
316 -9 0
315 65 0
315 -21 0
314 27 0
314 -12 0
50 49 45 74 47 73 86 -312 -225 -311 -310 -309 -308 -307 -222 313 0
312 54 0
312 9 0
311 28 0
311 12 0
310 26 0
310 -12 0
309 55 0
309 21 0
308 51 0
308 -9 0
307 52 0
307 -21 0
32 37 36 34 71 70 85 -305 -304 -239 -303 -302 -301 -300 -237 306 0
305 41 0
305 9 0
304 29 0
304 12 0
303 38 0
303 -9 0
302 42 0
302 21 0
301 39 0
301 -21 0
300 25 0
300 -12 0
299 -242 0
299 -295 0
299 -296 0
299 -297 0
299 -298 0
-155 -154 -153 -152 -200 298 0
-155 -154 -153 -152 -294 -151 297 0
-155 -154 -153 -152 -217 -241 296 0
-155 -154 -153 -152 -294 -278 295 0
294 -283 0
294 -288 0
294 -293 0
-292 61 76 81 63 60 78 77 -121 -119 -197 -193 -291 -290 -289 293 0
292 30 0
292 15 0
291 68 0
291 18 0
290 65 0
290 -18 0
289 27 0
289 -15 0
-287 50 48 75 74 47 73 80 -112 -189 -186 -109 -286 -285 -284 288 0
287 28 0
287 15 0
286 55 0
286 18 0
285 52 0
285 -18 0
284 26 0
284 -15 0
35 37 34 79 72 71 70 -282 -102 -182 -179 -99 -281 -280 -279 283 0
282 25 0
282 -15 0
281 42 0
281 18 0
280 29 0
280 15 0
279 39 0
279 -18 0
278 -259 0
278 -276 0
278 -277 0
-155 -154 -153 -152 -151 277 0
-155 -154 -153 -152 -200 -275 276 0
275 -264 0
275 -269 0
275 -274 0
61 76 81 62 60 77 84 -146 -168 -167 -142 -273 -272 -271 -270 274 0
273 68 0
273 15 0
272 30 0
272 18 0
271 65 0
271 -15 0
270 27 0
270 -18 0
49 48 74 47 73 83 80 -268 -161 -160 -134 -133 -267 -266 -265 269 0
268 28 0
268 18 0
267 55 0
267 15 0
266 52 0
266 -15 0
265 26 0
265 -18 0
35 36 34 79 71 70 82 -263 -130 -176 -262 -172 -124 -261 -260 264 0
263 25 0
263 -18 0
262 29 0
262 18 0
261 42 0
261 15 0
260 39 0
260 -15 0
-155 -154 -153 -152 -217 -258 259 0
258 -247 0
258 -252 0
258 -257 0
-256 76 81 63 60 78 77 -255 87 -146 -230 -229 -142 -254 -253 257 0
256 30 0
256 20 0
255 68 0
255 23 0
254 65 0
254 -23 0
253 27 0
253 -20 0
-251 50 75 74 47 73 86 80 -225 -250 -222 -134 -133 -249 -248 252 0
251 28 0
251 20 0
250 55 0
250 23 0
249 52 0
249 -23 0
248 26 0
248 -20 0
37 34 79 72 71 70 85 -246 -130 -239 -237 -124 -245 -244 -243 247 0
246 25 0
246 -20 0
245 42 0
245 23 0
244 29 0
244 20 0
243 39 0
243 -23 0
-155 -154 -153 -152 -241 -219 242 0
241 -226 0
241 -233 0
241 -240 0
37 36 34 79 71 70 85 -239 -238 -182 -179 -237 -236 -235 -234 240 0
239 43 0
239 24 0
238 42 0
238 22 0
237 40 0
237 -24 0
236 29 0
236 16 0
235 39 0
235 -22 0
234 25 0
234 -16 0
76 81 63 62 60 77 -232 87 -197 -231 -193 -230 -229 -228 -227 233 0
232 68 0
232 22 0
231 27 0
231 -16 0
230 69 0
230 24 0
229 66 0
229 -24 0
228 30 0
228 16 0
227 65 0
227 -22 0
50 49 74 47 73 86 80 -225 -224 -223 -189 -186 -222 -221 -220 226 0
225 56 0
225 24 0
224 28 0
224 16 0
223 55 0
223 22 0
222 53 0
222 -24 0
221 52 0
221 -22 0
220 26 0
220 -16 0
219 -156 0
219 -201 0
219 -218 0
-155 -154 -153 -152 -217 218 0
217 -206 0
217 -211 0
217 -216 0
61 76 81 63 62 59 -215 -120 90 -214 -145 -144 -213 -212 -118 216 0
215 68 0
215 12 0
214 65 0
214 -12 0
213 30 0
213 21 0
212 27 0
212 -21 0
50 49 48 46 73 80 -140 89 -210 -137 -209 -208 -207 -111 -110 211 0
210 55 0
210 12 0
209 28 0
209 21 0
208 52 0
208 -12 0
207 26 0
207 -21 0
33 35 37 36 79 70 88 -205 -204 -128 -127 -203 -202 -101 -100 206 0
205 39 0
205 -12 0
204 42 0
204 12 0
203 29 0
203 21 0
202 25 0
202 -21 0
-155 -154 -153 -152 -200 -178 201 0
200 -185 0
200 -192 0
200 -199 0
61 76 81 62 60 59 84 -198 -197 -196 -195 -194 -193 -145 -144 199 0
198 68 0
198 10 0
197 67 0
197 14 0
196 30 0
196 13 0
195 65 0
195 -10 0
194 27 0
194 -13 0
193 64 0
193 -14 0
49 48 46 47 73 83 80 -140 -191 -190 -189 -188 -187 -186 -137 192 0
191 55 0
191 10 0
190 28 0
190 13 0
189 54 0
189 14 0
188 52 0
188 -10 0
187 26 0
187 -13 0
186 51 0
186 -14 0
33 35 36 34 79 70 82 -184 -183 -182 -181 -180 -179 -128 -127 185 0
184 42 0
184 10 0
183 29 0
183 13 0
182 41 0
182 14 0
181 39 0
181 -10 0
180 25 0
180 -13 0
179 38 0
179 -14 0
178 -163 0
178 -170 0
178 -177 0
35 37 36 79 71 70 88 -176 -175 -174 -173 -172 -101 -100 -171 177 0
176 43 0
176 14 0
175 25 0
175 -22 0
174 39 0
174 -16 0
173 42 0
173 16 0
172 40 0
172 -14 0
171 29 0
171 22 0
61 76 81 63 62 77 -169 -120 90 -168 -167 -118 -166 -165 -164 170 0
169 30 0
169 22 0
168 66 0
168 -14 0
167 69 0
167 14 0
166 68 0
166 16 0
165 65 0
165 -16 0
164 27 0
164 -22 0
50 49 48 74 73 80 89 -162 -161 -160 -111 -110 -159 -158 -157 163 0
162 28 0
162 22 0
161 56 0
161 14 0
160 53 0
160 -14 0
159 55 0
159 16 0
158 52 0
158 -16 0
157 26 0
157 -22 0
-155 -154 -153 -152 -151 -123 156 0
155 27 0
155 -26 0
154 29 0
154 -28 0
153 26 0
153 -25 0
152 28 0
152 -30 0
151 -132 0
151 -141 0
151 -150 0
61 76 81 63 62 60 59 -149 -148 -147 -146 -145 -144 -143 -142 150 0
149 30 0
149 17 0
148 68 0
148 11 0
147 27 0
147 -17 0
146 64 0
146 -19 0
145 69 0
145 9 0
144 66 0
144 -9 0
143 65 0
143 -11 0
142 67 0
142 19 0
50 49 48 46 47 73 80 -140 -139 -138 -137 -136 -135 -134 -133 141 0
140 56 0
140 9 0
139 55 0
139 11 0
138 28 0
138 17 0
137 53 0
137 -9 0
136 52 0
136 -11 0
135 26 0
135 -17 0
134 54 0
134 19 0
133 51 0
133 -19 0
33 35 37 36 34 79 70 -131 -130 -129 -128 -127 -126 -125 -124 132 0
131 42 0
131 11 0
130 41 0
130 19 0
129 39 0
129 -11 0
128 43 0
128 9 0
127 40 0
127 -9 0
126 29 0
126 17 0
125 25 0
125 -17 0
124 38 0
124 -19 0
123 -104 0
123 -113 0
123 -122 0
61 76 81 62 77 84 -121 -120 90 -119 -118 -117 -116 -115 -114 122 0
121 69 0
121 19 0
120 67 0
120 24 0
119 66 0
119 -19 0
118 64 0
118 -24 0
117 68 0
117 20 0
116 30 0
116 23 0
115 65 0
115 -20 0
114 27 0
114 -23 0
49 48 74 73 83 80 89 -112 -111 -110 -109 -108 -107 -106 -105 113 0
112 56 0
112 19 0
111 54 0
111 24 0
110 51 0
110 -24 0
109 53 0
109 -19 0
108 55 0
108 20 0
107 28 0
107 23 0
106 52 0
106 -20 0
105 26 0
105 -23 0
35 36 79 71 70 82 88 -103 -102 -101 -100 -99 -98 -97 -96 104 0
103 39 0
103 -20 0
102 43 0
102 19 0
101 41 0
101 24 0
100 38 0
100 -24 0
99 40 0
99 -19 0
98 42 0
98 20 0
97 29 0
97 23 0
96 25 0
96 -23 0
95 -91 0
95 -92 0
95 -93 0
95 -94 0
-9 -10 -11 -12 94 0
-13 -14 -15 -16 93 0
-17 -18 -19 -20 92 0
-21 -22 -23 -24 91 0
